c Path planning problem for ProbSAT
c Generated by gen_cnf.py
p cnf 120 129
1 2 3 4 5 6 7 8 0
9 10 11 12 13 14 15 16 0
17 18 19 20 21 22 23 24 0
25 26 27 28 29 30 31 32 0
33 34 35 36 37 38 39 40 0
41 42 43 44 45 46 47 48 0
49 50 51 52 53 54 55 56 0
57 58 59 60 61 62 63 64 0
65 66 67 68 69 70 71 72 0
73 74 75 76 77 78 79 80 0
81 82 83 84 85 86 87 88 0
89 90 91 92 93 94 95 96 0
97 98 99 100 101 102 103 104 0
105 106 107 108 109 110 111 112 0
113 114 115 116 117 118 119 120 0
-1 9 12 10 0
-2 10 11 9 0
-3 11 13 10 0
-4 12 14 9 0
-5 13 16 11 0
-6 14 12 15 0
-7 15 16 14 0
-8 16 13 15 0
-9 17 20 18 0
-10 18 19 17 0
-11 19 21 18 0
-12 20 22 17 0
-13 21 24 19 0
-14 22 20 23 0
-15 23 24 22 0
-16 24 21 23 0
-17 25 28 26 0
-18 26 27 25 0
-19 27 29 26 0
-20 28 30 25 0
-21 29 32 27 0
-22 30 28 31 0
-23 31 32 30 0
-24 32 29 31 0
-25 33 36 34 0
-26 34 35 33 0
-27 35 37 34 0
-28 36 38 33 0
-29 37 40 35 0
-30 38 36 39 0
-31 39 40 38 0
-32 40 37 39 0
-33 41 44 42 0
-34 42 43 41 0
-35 43 45 42 0
-36 44 46 41 0
-37 45 48 43 0
-38 46 44 47 0
-39 47 48 46 0
-40 48 45 47 0
-41 49 52 50 0
-42 50 51 49 0
-43 51 53 50 0
-44 52 54 49 0
-45 53 56 51 0
-46 54 52 55 0
-47 55 56 54 0
-48 56 53 55 0
-49 57 60 58 0
-50 58 59 57 0
-51 59 61 58 0
-52 60 62 57 0
-53 61 64 59 0
-54 62 60 63 0
-55 63 64 62 0
-56 64 61 63 0
-57 65 68 66 0
-58 66 67 65 0
-59 67 69 66 0
-60 68 70 65 0
-61 69 72 67 0
-62 70 68 71 0
-63 71 72 70 0
-64 72 69 71 0
-65 73 76 74 0
-66 74 75 73 0
-67 75 77 74 0
-68 76 78 73 0
-69 77 80 75 0
-70 78 76 79 0
-71 79 80 78 0
-72 80 77 79 0
-73 81 84 82 0
-74 82 83 81 0
-75 83 85 82 0
-76 84 86 81 0
-77 85 88 83 0
-78 86 84 87 0
-79 87 88 86 0
-80 88 85 87 0
-81 89 92 90 0
-82 90 91 89 0
-83 91 93 90 0
-84 92 94 89 0
-85 93 96 91 0
-86 94 92 95 0
-87 95 96 94 0
-88 96 93 95 0
-89 97 100 98 0
-90 98 99 97 0
-91 99 101 98 0
-92 100 102 97 0
-93 101 104 99 0
-94 102 100 103 0
-95 103 104 102 0
-96 104 101 103 0
-97 105 108 106 0
-98 106 107 105 0
-99 107 109 106 0
-100 108 110 105 0
-101 109 112 107 0
-102 110 108 111 0
-103 111 112 110 0
-104 112 109 111 0
-105 113 116 114 0
-106 114 115 113 0
-107 115 117 114 0
-108 116 118 113 0
-109 117 120 115 0
-110 118 116 119 0
-111 119 120 118 0
-112 120 117 119 0
1 0
120 0
